NAME : XML100_2261_07
DIMENSION : 101
NB_CLUSTERS : 7
CLUSTERING_ALG : KMedoids
CLUSTERING_PARAMS : k(6)
CLUSTERS
1 0
2 2 3 16 17 22 41 47 59 71 73 74 77 78 83 84 85 87 92 100
3 4 6 10 21 24 25 50 57 61 62 64 67 72 80 86 97 98
4 13 14 18 27 28 39 48 51 58 63 95
5 15 20 32 33 36 38 46 49 53 55 66 76 79 88 89 96
6 1 5 8 9 12 19 23 26 29 30 34 35 40 43 45 52 54 56 60 65 68 70 82 90 91
7 7 11 31 37 42 44 69 75 81 93 94 99
EOF